Welcome to the CBC MILP Solver 
Version: 2.10.7 
Build Date: Feb 14 2022 

command line - cbc inputs/new_tr/order/triang10_1_tiers_input.lp sec 1800 solve solu solutions/new_tr/triang10_1_tiers_input.lp (default strategy 1)
seconds was changed from 1e+100 to 1800
Continuous objective value is 368.44 - 2.76 seconds
Cgl0002I 1778 variables fixed
Cgl0003I 0 fixed, 1 tightened bounds, 1598 strengthened rows, 0 substitutions
Cgl0003I 0 fixed, 0 tightened bounds, 189 strengthened rows, 0 substitutions
Cgl0003I 0 fixed, 0 tightened bounds, 38 strengthened rows, 0 substitutions
Cgl0003I 0 fixed, 0 tightened bounds, 10 strengthened rows, 0 substitutions
Cgl0003I 0 fixed, 0 tightened bounds, 2 strengthened rows, 0 substitutions
Cgl0004I processed model has 6697 rows, 2298 columns (2298 integer (2243 of which binary)) and 21796 elements
Cutoff increment increased from 1e-05 to 0.9999
Cbc0045I 1 integer variables out of 2298 objects (2298 integer) have cost of 1 - high priority
Cbc0045I branch on satisfied Y create fake objective Y random cost Y
Cbc0038I Initial state - 915 integers unsatisfied sum - 221.345
Cbc0038I Pass   1: (7.31 seconds) suminf.   74.14112 (519) obj. 459.346 iterations 2925
Cbc0038I Pass   2: (7.54 seconds) suminf.   61.41346 (497) obj. 478.122 iterations 671
Cbc0038I Pass   3: (7.57 seconds) suminf.   61.45552 (503) obj. 478.088 iterations 64
Cbc0038I Pass   4: (7.76 seconds) suminf.   57.66749 (467) obj. 455.102 iterations 604
Cbc0038I Pass   5: (7.78 seconds) suminf.   58.09379 (463) obj. 455.35 iterations 25
Cbc0038I Pass   6: (7.91 seconds) suminf.   54.59549 (470) obj. 451.938 iterations 377
Cbc0038I Pass   7: (7.96 seconds) suminf.   51.46477 (449) obj. 452.011 iterations 117
Cbc0038I Pass   8: (7.99 seconds) suminf.   53.72840 (453) obj. 452.057 iterations 46
Cbc0038I Pass   9: (8.04 seconds) suminf.   53.74123 (445) obj. 452.483 iterations 144
Cbc0038I Pass  10: (8.08 seconds) suminf.   51.93147 (444) obj. 452.48 iterations 92
Cbc0038I Pass  11: (8.10 seconds) suminf.   51.35184 (433) obj. 452.418 iterations 63
Cbc0038I Pass  12: (8.17 seconds) suminf.   47.93293 (434) obj. 452.376 iterations 175
Cbc0038I Pass  13: (8.18 seconds) suminf.   47.80393 (431) obj. 452.388 iterations 8
Cbc0038I Pass  14: (8.30 seconds) suminf.   39.66247 (413) obj. 453.236 iterations 348
Cbc0038I Pass  15: (8.35 seconds) suminf.   39.03652 (402) obj. 453.23 iterations 153
Cbc0038I Pass  16: (8.45 seconds) suminf.   35.91308 (418) obj. 455.891 iterations 242
Cbc0038I Pass  17: (8.48 seconds) suminf.   34.97522 (419) obj. 455.962 iterations 65
Cbc0038I Pass  18: (8.57 seconds) suminf.   30.45810 (366) obj. 441.852 iterations 285
Cbc0038I Pass  19: (8.59 seconds) suminf.   30.56167 (367) obj. 432.82 iterations 60
Cbc0038I Pass  20: (8.66 seconds) suminf.   25.87866 (343) obj. 497.853 iterations 205
Cbc0038I Pass  21: (8.68 seconds) suminf.   25.66451 (348) obj. 497.852 iterations 34
Cbc0038I Pass  22: (8.69 seconds) suminf.   25.67687 (347) obj. 497.853 iterations 1
Cbc0038I Pass  23: (8.74 seconds) suminf.   22.86149 (332) obj. 449.155 iterations 182
Cbc0038I Pass  24: (8.76 seconds) suminf.   22.51764 (327) obj. 449.107 iterations 51
Cbc0038I Pass  25: (8.80 seconds) suminf.   19.74644 (293) obj. 449.149 iterations 148
Cbc0038I Pass  26: (8.82 seconds) suminf.   19.27013 (294) obj. 444.217 iterations 64
Cbc0038I Pass  27: (8.84 seconds) suminf.   20.11142 (312) obj. 444.491 iterations 73
Cbc0038I Pass  28: (8.85 seconds) suminf.   19.55694 (311) obj. 445.859 iterations 12
Cbc0038I Pass  29: (8.90 seconds) suminf.   16.42505 (271) obj. 446.735 iterations 200
Cbc0038I Pass  30: (8.92 seconds) suminf.   15.83190 (269) obj. 449.955 iterations 40
Cbc0038I Pass  31: (8.95 seconds) suminf.   10.20302 (232) obj. 456.602 iterations 119
Cbc0038I Pass  32: (8.97 seconds) suminf.    9.10211 (229) obj. 438 iterations 31
Cbc0038I Pass  33: (8.97 seconds) suminf.    9.10211 (229) obj. 438 iterations 1
Cbc0038I Pass  34: (9.00 seconds) suminf.   10.05051 (229) obj. 440.207 iterations 100
Cbc0038I Pass  35: (9.01 seconds) suminf.   10.05051 (229) obj. 440.207 iterations 8
Cbc0038I Pass  36: (9.04 seconds) suminf.    6.96890 (194) obj. 438 iterations 134
Cbc0038I Pass  37: (9.06 seconds) suminf.    5.88837 (193) obj. 438 iterations 88
Cbc0038I Pass  38: (9.17 seconds) suminf.    3.73870 (149) obj. 442.224 iterations 394
Cbc0038I Pass  39: (9.18 seconds) suminf.    3.73870 (149) obj. 442.224 iterations 11
Cbc0038I Pass  40: (9.21 seconds) suminf.    2.56403 (136) obj. 442.224 iterations 82
Cbc0038I Pass  41: (9.22 seconds) suminf.    2.56403 (136) obj. 442.224 iterations 2
Cbc0038I Pass  42: (9.25 seconds) suminf.    2.51974 (97) obj. 453.276 iterations 121
Cbc0038I Pass  43: (9.26 seconds) suminf.    2.51948 (86) obj. 453.276 iterations 3
Cbc0038I Pass  44: (9.30 seconds) suminf.    0.68810 (48) obj. 443.344 iterations 138
Cbc0038I Pass  45: (9.31 seconds) suminf.    0.68810 (48) obj. 443.344 iterations 11
Cbc0038I Pass  46: (9.36 seconds) suminf.    3.77556 (53) obj. 439.439 iterations 174
Cbc0038I Pass  47: (9.45 seconds) suminf.    1.36882 (59) obj. 438 iterations 308
Cbc0038I Pass  48: (9.46 seconds) suminf.    1.36882 (59) obj. 438 iterations 5
Cbc0038I Pass  49: (9.49 seconds) suminf.    0.89540 (22) obj. 469.915 iterations 88
Cbc0038I Pass  50: (9.50 seconds) suminf.    0.89540 (22) obj. 469.915 iterations 10
Cbc0038I Pass  51: (9.61 seconds) suminf.    0.00000 (0) obj. 438 iterations 319
Cbc0038I Solution found of 438
Cbc0038I Cleaned solution of 438
Cbc0038I Before mini branch and bound, 1106 integers at bound fixed and 0 continuous
Cbc0038I Mini branch and bound did not improve solution (9.68 seconds)
Cbc0038I Round again with cutoff of 430.144
Cbc0038I Pass  52: (9.71 seconds) suminf.   74.45350 (523) obj. 430 iterations 34
Cbc0038I Pass  53: (9.89 seconds) suminf.   64.57344 (491) obj. 430.144 iterations 704
Cbc0038I Pass  54: (9.93 seconds) suminf.   63.51488 (494) obj. 430.144 iterations 104
Cbc0038I Pass  55: (9.94 seconds) suminf.   63.51488 (494) obj. 430.144 iterations 3
Cbc0038I Pass  56: (10.18 seconds) suminf.   58.28093 (497) obj. 430.144 iterations 807
Cbc0038I Pass  57: (10.21 seconds) suminf.   55.84784 (484) obj. 430.144 iterations 79
Cbc0038I Pass  58: (10.32 seconds) suminf.   52.57408 (477) obj. 430.144 iterations 334
Cbc0038I Pass  59: (10.36 seconds) suminf.   52.68814 (475) obj. 430.144 iterations 124
Cbc0038I Pass  60: (10.42 seconds) suminf.   53.92037 (475) obj. 430.144 iterations 173
Cbc0038I Pass  61: (10.60 seconds) suminf.   43.72726 (411) obj. 430.144 iterations 637
Cbc0038I Pass  62: (10.62 seconds) suminf.   43.80910 (409) obj. 430.144 iterations 35
Cbc0038I Pass  63: (10.67 seconds) suminf.   40.59116 (393) obj. 430.144 iterations 161
Cbc0038I Pass  64: (10.69 seconds) suminf.   40.94663 (391) obj. 430.144 iterations 79
Cbc0038I Pass  65: (10.74 seconds) suminf.   36.46903 (407) obj. 430.144 iterations 145
Cbc0038I Pass  66: (10.75 seconds) suminf.   36.60221 (413) obj. 430.144 iterations 10
Cbc0038I Pass  67: (10.81 seconds) suminf.   33.10884 (392) obj. 430.144 iterations 169
Cbc0038I Pass  68: (10.83 seconds) suminf.   32.01478 (394) obj. 430.144 iterations 67
Cbc0038I Pass  69: (10.91 seconds) suminf.   28.91870 (358) obj. 430.144 iterations 243
Cbc0038I Pass  70: (10.92 seconds) suminf.   28.78328 (359) obj. 430.144 iterations 20
Cbc0038I Pass  71: (10.96 seconds) suminf.   27.08638 (353) obj. 430.144 iterations 100
Cbc0038I Pass  72: (10.97 seconds) suminf.   26.92680 (350) obj. 430.144 iterations 27
Cbc0038I Pass  73: (11.01 seconds) suminf.   24.15431 (338) obj. 430.144 iterations 121
Cbc0038I Pass  74: (11.03 seconds) suminf.   23.34412 (326) obj. 430.144 iterations 67
Cbc0038I Pass  75: (11.06 seconds) suminf.   21.38418 (327) obj. 430.144 iterations 116
Cbc0038I Pass  76: (11.08 seconds) suminf.   21.09747 (323) obj. 430.144 iterations 38
Cbc0038I Pass  77: (11.11 seconds) suminf.   21.73965 (310) obj. 430.144 iterations 113
Cbc0038I Pass  78: (11.13 seconds) suminf.   21.19711 (311) obj. 430.144 iterations 25
Cbc0038I Pass  79: (11.16 seconds) suminf.   20.39166 (304) obj. 430.144 iterations 116
Cbc0038I Pass  80: (11.17 seconds) suminf.   19.85516 (304) obj. 430.144 iterations 13
Cbc0038I Pass  81: (11.23 seconds) suminf.   18.78439 (279) obj. 430.144 iterations 238
Cbc0038I Pass  82: (11.25 seconds) suminf.   18.75435 (278) obj. 430.144 iterations 18
Cbc0038I Pass  83: (11.31 seconds) suminf.   18.52659 (277) obj. 430.144 iterations 228
Cbc0038I Pass  84: (11.32 seconds) suminf.   16.82057 (279) obj. 430.144 iterations 37
Cbc0038I Pass  85: (11.38 seconds) suminf.   14.81952 (266) obj. 430.144 iterations 221
Cbc0038I Pass  86: (11.39 seconds) suminf.   14.73891 (268) obj. 430.144 iterations 5
Cbc0038I Pass  87: (11.45 seconds) suminf.   16.02721 (256) obj. 430.144 iterations 243
Cbc0038I Pass  88: (11.47 seconds) suminf.   15.29523 (260) obj. 430.144 iterations 35
Cbc0038I Pass  89: (11.51 seconds) suminf.   12.39167 (268) obj. 430.144 iterations 210
Cbc0038I Pass  90: (11.53 seconds) suminf.   11.32005 (263) obj. 430.144 iterations 30
Cbc0038I Pass  91: (11.57 seconds) suminf.   11.14487 (245) obj. 430.144 iterations 181
Cbc0038I Pass  92: (11.59 seconds) suminf.   11.11900 (245) obj. 430.144 iterations 71
Cbc0038I Pass  93: (11.61 seconds) suminf.    9.36059 (246) obj. 430.144 iterations 76
Cbc0038I Pass  94: (11.62 seconds) suminf.    9.36059 (246) obj. 430.144 iterations 20
Cbc0038I Pass  95: (11.65 seconds) suminf.   10.99685 (243) obj. 430.144 iterations 108
Cbc0038I Pass  96: (11.66 seconds) suminf.   10.99685 (243) obj. 430.144 iterations 13
Cbc0038I Pass  97: (11.71 seconds) suminf.    9.77651 (230) obj. 430.144 iterations 246
Cbc0038I Pass  98: (11.72 seconds) suminf.    9.77651 (230) obj. 430.144 iterations 23
Cbc0038I Pass  99: (11.75 seconds) suminf.    8.14020 (212) obj. 430.144 iterations 160
Cbc0038I Pass 100: (11.77 seconds) suminf.    8.40257 (224) obj. 430.144 iterations 35
Cbc0038I Pass 101: (11.79 seconds) suminf.   11.77316 (217) obj. 430.144 iterations 113
Cbc0038I Pass 102: (11.81 seconds) suminf.   11.75410 (215) obj. 430.144 iterations 40
Cbc0038I Pass 103: (11.84 seconds) suminf.    8.73401 (182) obj. 430.144 iterations 157
Cbc0038I Pass 104: (11.86 seconds) suminf.    8.68359 (181) obj. 430.144 iterations 53
Cbc0038I Pass 105: (11.90 seconds) suminf.    8.46216 (154) obj. 430.144 iterations 185
Cbc0038I Pass 106: (11.92 seconds) suminf.    8.26101 (152) obj. 430.144 iterations 55
Cbc0038I Pass 107: (11.97 seconds) suminf.    5.60770 (144) obj. 430.144 iterations 293
Cbc0038I Pass 108: (11.98 seconds) suminf.    5.59105 (143) obj. 430.144 iterations 29
Cbc0038I Pass 109: (12.02 seconds) suminf.    9.74775 (157) obj. 430.144 iterations 214
Cbc0038I Pass 110: (12.03 seconds) suminf.    8.63249 (156) obj. 430.144 iterations 38
Cbc0038I Pass 111: (12.06 seconds) suminf.    5.25935 (136) obj. 430.144 iterations 152
Cbc0038I Pass 112: (12.07 seconds) suminf.    3.93726 (129) obj. 430.144 iterations 37
Cbc0038I Pass 113: (12.08 seconds) suminf.    3.93726 (129) obj. 430.144 iterations 6
Cbc0038I Pass 114: (12.10 seconds) suminf.    7.75598 (114) obj. 430.144 iterations 93
Cbc0038I Pass 115: (12.11 seconds) suminf.    6.64137 (114) obj. 430.144 iterations 29
Cbc0038I Pass 116: (12.13 seconds) suminf.    2.31674 (92) obj. 430.144 iterations 99
Cbc0038I Pass 117: (12.14 seconds) suminf.    2.31674 (92) obj. 430.144 iterations 19
Cbc0038I Pass 118: (12.22 seconds) suminf.    3.13629 (18) obj. 430.144 iterations 360
Cbc0038I Pass 119: (12.24 seconds) suminf.    2.02167 (18) obj. 430.144 iterations 43
Cbc0038I Pass 120: (12.26 seconds) suminf.    4.21264 (17) obj. 430.144 iterations 97
Cbc0038I Pass 121: (12.28 seconds) suminf.    1.34091 (19) obj. 430.144 iterations 50
Cbc0038I Pass 122: (12.30 seconds) suminf.    5.43217 (37) obj. 430.144 iterations 116
Cbc0038I Pass 123: (12.31 seconds) suminf.    5.52666 (32) obj. 430.144 iterations 21
Cbc0038I Pass 124: (12.34 seconds) suminf.    6.27315 (35) obj. 430.144 iterations 160
Cbc0038I Pass 125: (12.36 seconds) suminf.    5.68551 (39) obj. 430.144 iterations 47
Cbc0038I Pass 126: (12.40 seconds) suminf.   10.65494 (66) obj. 430.144 iterations 243
Cbc0038I Pass 127: (12.42 seconds) suminf.    9.32254 (69) obj. 430.144 iterations 57
Cbc0038I Pass 128: (12.46 seconds) suminf.    5.12153 (49) obj. 430.144 iterations 230
Cbc0038I Pass 129: (12.47 seconds) suminf.    4.50386 (54) obj. 430.144 iterations 67
Cbc0038I Pass 130: (12.53 seconds) suminf.    9.34630 (69) obj. 430.144 iterations 304
Cbc0038I Pass 131: (12.57 seconds) suminf.    6.86243 (64) obj. 430.144 iterations 206
Cbc0038I Pass 132: (12.62 seconds) suminf.    6.66269 (75) obj. 430.144 iterations 286
Cbc0038I Pass 133: (12.64 seconds) suminf.    6.48485 (84) obj. 430.144 iterations 42
Cbc0038I Pass 134: (12.67 seconds) suminf.    2.70693 (64) obj. 430.144 iterations 139
Cbc0038I Pass 135: (12.68 seconds) suminf.    2.70693 (64) obj. 430.144 iterations 3
Cbc0038I Pass 136: (12.69 seconds) suminf.    5.36254 (67) obj. 430.144 iterations 58
Cbc0038I Pass 137: (12.70 seconds) suminf.    5.01798 (67) obj. 430.144 iterations 5
Cbc0038I Pass 138: (12.72 seconds) suminf.    2.79780 (68) obj. 430.144 iterations 54
Cbc0038I Pass 139: (12.72 seconds) suminf.    2.80524 (68) obj. 430.144 iterations 3
Cbc0038I Pass 140: (12.75 seconds) suminf.   10.93641 (67) obj. 430.144 iterations 120
Cbc0038I Pass 141: (12.78 seconds) suminf.    7.27023 (69) obj. 430.144 iterations 134
Cbc0038I Pass 142: (12.87 seconds) suminf.    6.58866 (68) obj. 430.144 iterations 352
Cbc0038I Pass 143: (12.88 seconds) suminf.    6.57720 (64) obj. 430.144 iterations 3
Cbc0038I Pass 144: (12.91 seconds) suminf.    7.18521 (49) obj. 430.144 iterations 169
Cbc0038I Pass 145: (12.93 seconds) suminf.    6.30174 (50) obj. 430.144 iterations 80
Cbc0038I Pass 146: (12.95 seconds) suminf.    5.22113 (49) obj. 430.144 iterations 95
Cbc0038I Pass 147: (12.97 seconds) suminf.    4.71685 (53) obj. 430.144 iterations 62
Cbc0038I Pass 148: (12.99 seconds) suminf.    6.33054 (52) obj. 430.144 iterations 109
Cbc0038I Pass 149: (13.00 seconds) suminf.    5.72420 (51) obj. 430.144 iterations 16
Cbc0038I Pass 150: (13.04 seconds) suminf.    9.73555 (60) obj. 430.144 iterations 204
Cbc0038I Pass 151: (13.45 seconds) suminf.   63.76859 (388) obj. 430.144 iterations 1772
Cbc0038I No solution found this major pass
Cbc0038I Before mini branch and bound, 999 integers at bound fixed and 0 continuous
Cbc0038I Mini branch and bound did not improve solution (13.46 seconds)
Cbc0038I After 13.46 seconds - Feasibility pump exiting with objective of 438 - took 7.27 seconds
Cbc0012I Integer solution of 438 found by feasibility pump after 0 iterations and 0 nodes (13.46 seconds)
Cbc0031I 38 added rows had average density of 51.184211
Cbc0013I At root node, 38 cuts changed objective from 368.43998 to 379.42215 in 10 passes
Cbc0014I Cut generator 0 (Probing) - 176 row cuts average 2.0 elements, 4 column cuts (4 active)  in 0.196 seconds - new frequency is 1
Cbc0014I Cut generator 1 (Gomory) - 83 row cuts average 138.6 elements, 0 column cuts (0 active)  in 1.264 seconds - new frequency is 1
Cbc0014I Cut generator 2 (Knapsack) - 17 row cuts average 8.7 elements, 0 column cuts (0 active)  in 0.032 seconds - new frequency is 1
Cbc0014I Cut generator 3 (Clique) - 0 row cuts average 0.0 elements, 0 column cuts (0 active)  in 0.026 seconds - new frequency is -100
Cbc0014I Cut generator 4 (MixedIntegerRounding2) - 1 row cuts average 3.0 elements, 0 column cuts (0 active)  in 0.029 seconds - new frequency is -100
Cbc0014I Cut generator 5 (FlowCover) - 0 row cuts average 0.0 elements, 0 column cuts (0 active)  in 0.024 seconds - new frequency is -100
Cbc0014I Cut generator 6 (TwoMirCuts) - 218 row cuts average 101.6 elements, 0 column cuts (0 active)  in 0.577 seconds - new frequency is 1
Cbc0010I After 0 nodes, 1 on tree, 438 best solution, best possible 379.42215 (59.70 seconds)
Cbc0038I Full problem 6697 rows 2298 columns, reduced to 2011 rows 574 columns
Cbc0010I After 100 nodes, 13 on tree, 438 best solution, best possible 380 (301.05 seconds)
Cbc0010I After 200 nodes, 10 on tree, 438 best solution, best possible 380 (607.33 seconds)
Cbc0010I After 300 nodes, 9 on tree, 438 best solution, best possible 380 (865.00 seconds)
Cbc0010I After 400 nodes, 12 on tree, 438 best solution, best possible 380 (1065.33 seconds)
Cbc0038I Full problem 6697 rows 2298 columns, reduced to 1469 rows 413 columns
Cbc0010I After 500 nodes, 11 on tree, 438 best solution, best possible 380 (1214.80 seconds)
Cbc0010I After 600 nodes, 4 on tree, 438 best solution, best possible 380 (1400.42 seconds)
Cbc0010I After 700 nodes, 6 on tree, 438 best solution, best possible 380 (1582.89 seconds)
Cbc0038I Full problem 6697 rows 2298 columns, reduced to 1484 rows 402 columns
Cbc0010I After 800 nodes, 15 on tree, 438 best solution, best possible 380 (1769.29 seconds)
Cbc0020I Exiting on maximum time
Cbc0005I Partial search - best objective 438 (best possible 380), took 2137097 iterations and 812 nodes (1796.91 seconds)
Cbc0032I Strong branching done 8172 times (699999 iterations), fathomed 41 nodes and fixed 286 variables
Cbc0035I Maximum depth 35, 0 variables fixed on reduced cost
Cuts at root node changed objective from 368.44 to 379.422
Probing was tried 152 times and created 5658 cuts of which 0 were active after adding rounds of cuts (0.792 seconds)
Gomory was tried 145 times and created 279 cuts of which 0 were active after adding rounds of cuts (3.071 seconds)
Knapsack was tried 145 times and created 959 cuts of which 0 were active after adding rounds of cuts (0.364 seconds)
Clique was tried 10 times and created 0 cuts of which 0 were active after adding rounds of cuts (0.026 seconds)
MixedIntegerRounding2 was tried 10 times and created 1 cuts of which 0 were active after adding rounds of cuts (0.029 seconds)
FlowCover was tried 10 times and created 0 cuts of which 0 were active after adding rounds of cuts (0.024 seconds)
TwoMirCuts was tried 145 times and created 3539 cuts of which 0 were active after adding rounds of cuts (1.334 seconds)
ZeroHalf was tried 1 times and created 0 cuts of which 0 were active after adding rounds of cuts (0.083 seconds)
ImplicationCuts was tried 37 times and created 705 cuts of which 0 were active after adding rounds of cuts (0.013 seconds)

Result - Stopped on time limit

Objective value:                438.00000000
Lower bound:                    380.000
Gap:                            0.15
Enumerated nodes:               812
Total iterations:               2137097
Time (CPU seconds):             1797.44
Time (Wallclock seconds):       1799.72

Total time (CPU seconds):       1797.49   (Wallclock seconds):       1799.77

